NAME : 21
COMMENT : tspgen
TYPE : TSP
DIMENSION : 21
EDGE_WEIGHT_TYPE : EUC_2D
NODE_COORD_SECTION
1 10253079 9951395
2 9990895 10042803
3 9994517 10041093
4 10073510 10050460
5 9925160 9992888
6 10085128 10050460
7 10060765 10015454
8 10067570 9995691
9 10073510 10073581
10 9984586 10014875
11 10054104 10025352
12 10060928 9988608
13 10001850 10048212
14 10088798 10074072
15 9973109 9978037
16 10027919 9993030
17 10090217 10000168
18 10009310 10032348
19 10062837 10017626
20 10096505 10063800
21 10086367 9973641
EOF